13 965
525 7 445 7 264 7 63 9 889 11 721 18
525 7 482 7 362 7 201 9 13 11 819 18
535 8 494 8 321 11
535 8 494 8 321 11
535 8 494 8 323 11
521 7 475 7 329 11
525 7 479 7 358 7 163 9 10 11 784 18
533 7
533 7
533 7
533 7
533 7
533 7
